/* Objective Function */
min: 453.6 Q111 + 370.8 T111 + 448.1 Q121 + 366.8 T121 + 3066.65 Q131 + 2271.2 T131 + 459.1 Q141 + 374.8 T141 + 3057.85 Q151 + 2264.8 T151 + 981.05 Q211 + 754.4 T211 + 954.1 Q221 + 734.8 T221 + 2734.45 Q231 + 2029.6 T231 + 986.55 Q241 + 758.4  T241 + 2699.8 Q251 + 2004.4 T251 + 236.35 Q112 + 212.8 T112 + 124.7 Q122 + 131.6 T122 + 2650.85 Q132 + 1968.8 T132 + 220.95 Q142 + 201.6 T142 + 2647 Q152 + 1966 T152 + 763.8 Q212 + 596.4 T212 + 630.7 Q222 + 499.6 T222 + 2318.65 Q232 + 1727.2 T232 + 748.4 Q242 + 585.2 T242 + 2288.95 Q252 + 1705.6 T252;

//Q111 implies 1st Plant-1st VDC-1stDealer, and used for Autonomous vehicles
//T111 implies the same, except it is used for trucks

/* Constraints */
Q111 + T111 + Q121 + T121 + Q131 + T131 + Q141 + T141 + Q151 + T151 = 144; //144 is number of VIN
Q211 + T211 + Q221 + T221 + Q231 + T231 + Q241 + T241 + Q251 + T251 = 17;  //These values are demand
Q112 + T112 + Q122 + T122 + Q132 + T132 + Q142 + T142 + Q152 + T152 = 148;
Q212 + T212 + Q222 + T222 + Q232 + T232 + Q242 + T242 + Q252 + T252 = 17;

TT111 = 0.1 T111;  //here we multiply by 0.1 because 
TT121 = 0.1 T121;  //each load can carry 10 trucks
TT131 = 0.1 T131;  
TT141 = 0.1 T141;
TT151 = 0.1 T151;
TT211 = 0.1 T211;
TT221 = 0.1 T221;
TT231 = 0.1 T231;
TT241 = 0.1 T241;
TT251 = 0.1 T251;
TT112 = 0.1 T112;
TT122 = 0.1 T122;
TT132 = 0.1 T132;
TT142 = 0.1 T142;
TT152 = 0.1 T152;
TT212 = 0.1 T212;
TT222 = 0.1 T222;
TT232 = 0.1 T232;
TT242 = 0.1 T242;
TT252 = 0.1 T252;

int TT111, TT121, TT131, TT141, TT151, TT211, TT221, TT231, TT241, TT251, TT112, TT122, TT132, TT142, TT152, TT212, TT222, TT232, TT242, TT252;

